(set-info :smt-lib-version 2.6)
(set-logic QF_SLIA)
(set-info :source |
Generated by: Joel Day, Thorsten Ehlers, Mitja Kulczynski, Federico Mora, Florin Manea, Dirk Nowotka, Danny Poulsen, Zhengyang Lu
Application: Test WOORPJE
Target solver: WOORPJE
Publications: Day, J. D., Ehlers, T., Kulczynski, M., Manea, F., Nowotka, D., & Poulsen, D. B. (2019). On solving word equations using SAT. In RP 2019
Description: Enriches a system of 30 word equations by suitable linear constraints
|)
(set-info :license "https://creativecommons.org/licenses/by/4.0/")
(set-info :category "random")
(set-info :status unknown)

(declare-fun I () String)
(declare-fun H () String)
(assert (= (str.++  "aafdcfb" I "e" I "bb" I "caddfcafceacefd" I "aa" I "eaddedbf")  (str.++  "aafdcf" H "ceacefd" I "aa" I "eadded" I "f") ))
(assert (= (str.++  "febdbceadbbdfeadafabfffeccceafaedaa" I "eaee")  (str.++  "fe" I "d" I "ceadb" I "dfeadafa" I "fffeccceafaedaa" I "eaee") ))
(assert (= (str.++  "daedefc" I "afcbd" I "fcdfcdfddfffaefb" I "decbf" I "dbe")  (str.++  "daedefc" I "afcbdbfcdfcdfddfffaefb" I "dec" I "f" I "dbe") ))
(assert (<=(* (str.len H) 19) 1197))
(check-sat)

(exit)
